language ESSENCE' 1.0

letting fixed be 
[
    [9,8,6,7,2,1,3,4,5],
    [3,0,4,9,5,6,0,0,7],
    [0,0,7,0,3,0,9,6,0],
    [0,7,3,0,6,5,0,0,9],
    [6,9,0,0,1,7,0,0,3],
    [1,0,0,3,9,0,2,7,6],
    [0,0,0,6,7,9,0,3,0],
    [0,6,9,1,4,3,7,0,0],
    [7,3,1,5,8,2,6,9,4]
]